
Gurobi 11.0.3 (mac64[x86]) logging started Tue Apr  8 19:23:49 2025

Set parameter LogFile to value "Results/Conservative_experiment/sanity_check_v6.log"
Set parameter TimeLimit to value 84600
Set parameter Method to value 2
Set parameter Crossover to value 0
Set parameter BarConvTol to value 1e-10
Gurobi Optimizer version 11.0.3 build v11.0.3rc0 (mac64[x86] - Darwin 23.4.0 23E214)

CPU model: Intel(R) Core(TM) i7-1060NG7 CPU @ 1.20GHz
Thread count: 4 physical cores, 8 logical processors, using up to 8 threads

Optimize a model with 3282720 rows, 3705248 columns and 14996144 nonzeros
Model fingerprint: 0x6ed8a217
Coefficient statistics:
  Matrix range     [2e-01, 3e+00]
  Objective range  [6e-05, 5e+00]
  Bounds range     [0e+00, 0e+00]
  RHS range        [4e+00, 1e+03]
Presolve removed 1322528 rows and 1370000 columns (presolve time = 5s) ...
Presolve removed 1534112 rows and 1581584 columns (presolve time = 10s) ...
Presolve removed 2138646 rows and 2239726 columns
Presolve time: 13.46s
Presolved: 1144074 rows, 1465522 columns, 5615016 nonzeros
Ordering time: 2.10s

Barrier statistics:
 AA' NZ     : 2.827e+06
 Factor NZ  : 2.248e+07 (roughly 300 MB of memory)
 Factor Ops : 1.593e+10 (less than 1 second per iteration)
 Threads    : 4

                  Objective                Residual
Iter       Primal          Dual         Primal    Dual     Compl     Time
   0   2.50549679e+06  1.05662426e+07  4.02e+04 1.89e+00  8.44e+03    18s
   1  -5.82754830e+06  1.05646133e+07  2.89e+04 7.00e+00  6.12e+03    19s
   2  -1.35811387e+07  1.26753842e+07  2.13e+04 3.36e+00  3.82e+03    19s
   3  -2.83821685e+07  1.27634438e+07  3.48e+03 3.51e-01  6.46e+02    20s
   4  -1.23942617e+07  5.43197434e+06  8.24e+02 2.92e-02  1.57e+02    21s
   5  -3.19412533e+06  2.01272370e+06  1.86e+02 2.02e-03  3.69e+01    21s
   6  -5.04599358e+05  6.43287520e+05  2.56e+01 2.27e-13  6.17e+00    22s
   7  -5.73442483e+04  1.33797006e+05  1.49e+00 3.55e-13  7.49e-01    23s
   8  -9.42464930e+03  1.01569953e+04  2.47e-01 2.03e-13  7.21e-02    23s
   9  -1.64638519e+02  1.75248402e+03  1.15e-02 4.22e-14  6.77e-03    24s
  10   2.13003373e+02  9.06988552e+02  3.53e-03 3.71e-14  2.44e-03    25s
  11   3.02249141e+02  5.69661680e+02  1.25e-03 3.83e-14  9.37e-04    26s
  12   3.44716341e+02  4.78861100e+02  3.66e-04 4.54e-14  4.67e-04    27s
  13   3.61292191e+02  3.82964788e+02  9.15e-05 5.10e-14  7.58e-05    27s
  14   3.66730827e+02  3.77960789e+02  1.46e-05 3.48e-14  3.89e-05    28s
  15   3.67118504e+02  3.74447974e+02  1.13e-05 4.89e-14  2.54e-05    29s
  16   3.67660199e+02  3.71984681e+02  6.62e-06 4.63e-14  1.50e-05    29s
  17   3.68051156e+02  3.70709807e+02  4.57e-06 5.88e-14  9.23e-06    30s
  18   3.68295713e+02  3.70109408e+02  3.60e-06 6.27e-14  6.30e-06    30s
  19   3.68692491e+02  3.69483039e+02  1.94e-06 7.00e-14  2.75e-06    31s
  20   3.68814663e+02  3.69159675e+02  1.01e-06 6.68e-14  1.20e-06    32s
  21   3.68933750e+02  3.68999844e+02  8.29e-08 1.16e-13  2.28e-07    33s
  22   3.68936924e+02  3.68937735e+02  1.57e-09 1.10e-13  2.80e-09    33s
  23   3.68936995e+02  3.68937001e+02  3.67e-09 1.14e-13  2.02e-11    34s
  24   3.68937000e+02  3.68937000e+02  2.54e-10 1.14e-13  8.84e-15    35s

Barrier solved model in 24 iterations and 34.75 seconds (25.59 work units)
Optimal objective 3.68937000e+02


Gurobi 11.0.3 (mac64[x86]) logging started Tue Apr  8 19:35:48 2025

Set parameter LogFile to value "Results/Conservative_experiment/sanity_check_v6.log"
Set parameter TimeLimit to value 84600
Set parameter Method to value 2
Set parameter Crossover to value 0
Set parameter BarConvTol to value 1e-10
Gurobi Optimizer version 11.0.3 build v11.0.3rc0 (mac64[x86] - Darwin 23.4.0 23E214)

CPU model: Intel(R) Core(TM) i7-1060NG7 CPU @ 1.20GHz
Thread count: 4 physical cores, 8 logical processors, using up to 8 threads

Optimize a model with 3282720 rows, 3705248 columns and 14996144 nonzeros
Model fingerprint: 0x6ed8a217
Coefficient statistics:
  Matrix range     [2e-01, 3e+00]
  Objective range  [6e-05, 5e+00]
  Bounds range     [0e+00, 0e+00]
  RHS range        [4e+00, 1e+03]
Presolve removed 0 rows and 0 columns (presolve time = 5s) ...
Presolve removed 1314208 rows and 1240848 columns (presolve time = 11s) ...
Presolve removed 1533056 rows and 1580528 columns (presolve time = 15s) ...
Presolve removed 1534112 rows and 1581584 columns (presolve time = 20s) ...
Presolve removed 2138646 rows and 2239726 columns
Presolve time: 24.07s
Presolved: 1144074 rows, 1465522 columns, 5615016 nonzeros
Ordering time: 3.23s

Barrier statistics:
 AA' NZ     : 2.827e+06
 Factor NZ  : 2.248e+07 (roughly 300 MB of memory)
 Factor Ops : 1.593e+10 (roughly 1 second per iteration)
 Threads    : 4

                  Objective                Residual
Iter       Primal          Dual         Primal    Dual     Compl     Time
   0   2.50549679e+06  1.05662426e+07  4.02e+04 1.89e+00  8.44e+03    32s
   1  -5.82754830e+06  1.05646133e+07  2.89e+04 7.00e+00  6.12e+03    34s
   2  -1.35811387e+07  1.26753842e+07  2.13e+04 3.36e+00  3.82e+03    35s
   3  -2.83821685e+07  1.27634438e+07  3.48e+03 3.51e-01  6.46e+02    36s
   4  -1.23942617e+07  5.43197434e+06  8.24e+02 2.92e-02  1.57e+02    37s
   5  -3.19412533e+06  2.01272370e+06  1.86e+02 2.02e-03  3.69e+01    38s
   6  -5.04599358e+05  6.43287520e+05  2.56e+01 2.27e-13  6.17e+00    39s
   7  -5.73442483e+04  1.33797006e+05  1.49e+00 3.55e-13  7.49e-01    40s
   8  -9.42464930e+03  1.01569953e+04  2.47e-01 2.03e-13  7.21e-02    41s
   9  -1.64638519e+02  1.75248402e+03  1.15e-02 4.22e-14  6.77e-03    42s
  10   2.13003373e+02  9.06988552e+02  3.53e-03 3.71e-14  2.44e-03    43s
  11   3.02249141e+02  5.69661680e+02  1.25e-03 3.83e-14  9.37e-04    44s
  12   3.44716341e+02  4.78861100e+02  3.66e-04 4.54e-14  4.67e-04    45s
  13   3.61292191e+02  3.82964788e+02  9.15e-05 5.10e-14  7.58e-05    46s
  14   3.66730827e+02  3.77960789e+02  1.46e-05 3.48e-14  3.89e-05    47s
  15   3.67118504e+02  3.74447974e+02  1.13e-05 4.89e-14  2.54e-05    48s
  16   3.67660199e+02  3.71984681e+02  6.62e-06 4.63e-14  1.50e-05    49s
  17   3.68051156e+02  3.70709807e+02  4.57e-06 5.88e-14  9.23e-06    50s
  18   3.68295713e+02  3.70109408e+02  3.60e-06 6.27e-14  6.30e-06    51s
  19   3.68692491e+02  3.69483039e+02  1.94e-06 7.00e-14  2.75e-06    52s
  20   3.68814663e+02  3.69159675e+02  1.01e-06 6.68e-14  1.20e-06    55s
  21   3.68933750e+02  3.68999844e+02  8.29e-08 1.16e-13  2.28e-07    58s
  22   3.68936924e+02  3.68937735e+02  1.57e-09 1.10e-13  2.80e-09    60s
  23   3.68936995e+02  3.68937001e+02  3.67e-09 1.14e-13  2.02e-11    63s
  24   3.68937000e+02  3.68937000e+02  2.54e-10 1.14e-13  8.84e-15    66s

Barrier solved model in 24 iterations and 65.67 seconds (25.59 work units)
Optimal objective 3.68937000e+02


Gurobi 11.0.3 (mac64[x86]) logging started Tue Apr  8 19:44:36 2025

Set parameter LogFile to value "Results/Conservative_experiment/sanity_check_v6.log"

Gurobi 11.0.3 (mac64[x86]) logging started Tue Apr  8 19:47:55 2025

Set parameter LogFile to value "Results/Conservative_experiment/sanity_check_v6.log"
Set parameter TimeLimit to value 84600
Set parameter Method to value 2
Set parameter Crossover to value 0
Set parameter BarConvTol to value 1e-10
Gurobi Optimizer version 11.0.3 build v11.0.3rc0 (mac64[x86] - Darwin 23.4.0 23E214)

CPU model: Intel(R) Core(TM) i7-1060NG7 CPU @ 1.20GHz
Thread count: 4 physical cores, 8 logical processors, using up to 8 threads

Optimize a model with 3282720 rows, 3705248 columns and 14996144 nonzeros
Model fingerprint: 0x6ed8a217
Coefficient statistics:
  Matrix range     [2e-01, 3e+00]
  Objective range  [6e-05, 5e+00]
  Bounds range     [0e+00, 0e+00]
  RHS range        [4e+00, 1e+03]
Presolve removed 1322528 rows and 1370000 columns (presolve time = 6s) ...
Presolve removed 1534112 rows and 1581584 columns (presolve time = 10s) ...
Presolve removed 2138646 rows and 2239726 columns (presolve time = 16s) ...
Presolve removed 2138646 rows and 2239726 columns
Presolve time: 15.97s
Presolved: 1144074 rows, 1465522 columns, 5615016 nonzeros
Ordering time: 7.26s

Barrier statistics:
 AA' NZ     : 2.827e+06
 Factor NZ  : 2.248e+07 (roughly 300 MB of memory)
 Factor Ops : 1.593e+10 (less than 1 second per iteration)
 Threads    : 4

                  Objective                Residual
Iter       Primal          Dual         Primal    Dual     Compl     Time
   0   2.50549679e+06  1.05662426e+07  4.02e+04 1.89e+00  8.44e+03    30s
   1  -5.82754830e+06  1.05646133e+07  2.89e+04 7.00e+00  6.12e+03    30s
   2  -1.35811387e+07  1.26753842e+07  2.13e+04 3.36e+00  3.82e+03    31s
   3  -2.83821685e+07  1.27634438e+07  3.48e+03 3.51e-01  6.46e+02    32s
   4  -1.23942617e+07  5.43197434e+06  8.24e+02 2.92e-02  1.57e+02    33s
   5  -3.19412533e+06  2.01272370e+06  1.86e+02 2.02e-03  3.69e+01    34s
   6  -5.04599358e+05  6.43287520e+05  2.56e+01 2.27e-13  6.17e+00    35s
   7  -5.73442483e+04  1.33797006e+05  1.49e+00 3.55e-13  7.49e-01    36s
   8  -9.42464930e+03  1.01569953e+04  2.47e-01 2.03e-13  7.21e-02    38s
   9  -1.64638519e+02  1.75248402e+03  1.15e-02 4.22e-14  6.77e-03    39s
  10   2.13003373e+02  9.06988552e+02  3.53e-03 3.71e-14  2.44e-03    40s
  11   3.02249141e+02  5.69661680e+02  1.25e-03 3.83e-14  9.37e-04    40s
  12   3.44716341e+02  4.78861100e+02  3.66e-04 4.54e-14  4.67e-04    41s
  13   3.61292191e+02  3.82964788e+02  9.15e-05 5.10e-14  7.58e-05    42s
  14   3.66730827e+02  3.77960789e+02  1.46e-05 3.48e-14  3.89e-05    43s
  15   3.67118504e+02  3.74447974e+02  1.13e-05 4.89e-14  2.54e-05    44s
  16   3.67660199e+02  3.71984681e+02  6.62e-06 4.63e-14  1.50e-05    44s
  17   3.68051156e+02  3.70709807e+02  4.57e-06 5.88e-14  9.23e-06    45s
  18   3.68295713e+02  3.70109408e+02  3.60e-06 6.27e-14  6.30e-06    46s
  19   3.68692491e+02  3.69483039e+02  1.94e-06 7.00e-14  2.75e-06    47s
  20   3.68814663e+02  3.69159675e+02  1.01e-06 6.68e-14  1.20e-06    48s
  21   3.68933750e+02  3.68999844e+02  8.29e-08 1.16e-13  2.28e-07    48s
  22   3.68936924e+02  3.68937735e+02  1.57e-09 1.10e-13  2.80e-09    49s
  23   3.68936995e+02  3.68937001e+02  3.67e-09 1.14e-13  2.02e-11    51s
  24   3.68937000e+02  3.68937000e+02  2.54e-10 1.14e-13  8.84e-15    52s

Barrier solved model in 24 iterations and 51.69 seconds (25.59 work units)
Optimal objective 3.68937000e+02

